p tw 50 55
1 2
2 13
3 4
4 5
5 6
6 7
7 8
8 9
9 10
10 11
11 12
12 14
12 40
13 24
14 15
15 16
16 17
17 18
17 20
18 19
19 22
20 21
21 22
22 23
23 25
24 35
25 26
26 27
27 28
27 30
28 29
29 32
30 31
31 32
32 33
33 34
34 36
34 47
35 46
36 37
37 38
38 39
39 44
40 41
41 42
41 47
42 43
43 44
44 45
46 47
47 48
48 49
49 50
50 3
50 42
